N = 9;
H = 6;
T = 2;

avail = array3d(1..N, 1..H, 1..T, [9, 1, 10, 3, 1, 3, 4, 0, 8, 10, 8, 4, 0, 2, 8, 4, 8, 1, 7, 2, 9, 4, 2, 7, 0, 5, 6, 3, 10, 1, 3, 0, 9, 10, 4, 9, 9, 5, 8, 4, 5, 7, 1, 3, 4, 8, 5, 5, 9, 1, 5, 4, 8, 5, 7, 3, 1, 5, 5, 4, 4, 9, 2, 4, 10, 8, 1, 3, 1, 8, 3, 5, 9, 3, 6, 0, 1, 3, 5, 2, 1, 7, 10, 4, 4, 9, 4, 3, 5, 7, 2, 9, 6, 6, 7, 7, 10, 8, 5, 7, 3, 10, 8, 8, 6, 3, 10, 2]);

r = array2d(1..H, 1..T, [3, 1, 3, 2, 5, 2, 3, 5, 2, 3, 3, 0]);
